\* EfficientAllocation *\
Maximize
OBJ: 257 X_1 + 2922 X_10 + 2671 X_100 + 3836 X_101 + 4017 X_102 + 4173 X_103
 + 2982 X_104 + 4153 X_105 + 4335 X_106 + 4490 X_107 + 3248 X_108 + 4425 X_109
 + 2958 X_11 + 4607 X_110 + 4762 X_111 + 819 X_112 + 1957 X_113 + 2135 X_114
 + 2287 X_115 + 2766 X_116 + 3933 X_117 + 4114 X_118 + 4270 X_119 + 2940 X_12
 + 3077 X_120 + 4250 X_121 + 4432 X_122 + 4587 X_123 + 3343 X_124 + 4523 X_125
 + 4704 X_126 + 4860 X_127 + 3197 X_13 + 3239 X_14 + 3276 X_15 + 160 X_16
 + 418 X_17 + 460 X_18 + 496 X_19 + 299 X_2 + 2412 X_20 + 2670 X_21
 + 2712 X_22 + 2748 X_23 + 2783 X_24 + 3040 X_25 + 3083 X_26 + 3119 X_27
 + 3100 X_28 + 3358 X_29 + 336 X_3 + 3400 X_30 + 3436 X_31 + 187 X_32
 + 444 X_33 + 487 X_34 + 523 X_35 + 2439 X_36 + 2696 X_37 + 2739 X_38
 + 2775 X_39 + 2252 X_4 + 2809 X_40 + 3067 X_41 + 3109 X_42 + 3145 X_43
 + 3127 X_44 + 3384 X_45 + 3427 X_46 + 3463 X_47 + 210 X_48 + 467 X_49
 + 2509 X_5 + 509 X_50 + 546 X_51 + 2462 X_52 + 2719 X_53 + 2761 X_54
 + 2798 X_55 + 2832 X_56 + 3089 X_57 + 3132 X_58 + 3168 X_59 + 2551 X_6
 + 3150 X_60 + 3407 X_61 + 3449 X_62 + 3486 X_63 + 1003 X_65 + 1168 X_66
 + 1310 X_67 + 1756 X_68 + 2965 X_69 + 2588 X_7 + 3142 X_70 + 3294 X_71
 + 2045 X_72 + 3275 X_73 + 3452 X_74 + 3604 X_75 + 2293 X_76 + 3541 X_77
 + 3718 X_78 + 3870 X_79 + 2622 X_8 + 627 X_80 + 1752 X_81 + 1929 X_82
 + 2081 X_83 + 2560 X_84 + 3722 X_85 + 3904 X_86 + 4059 X_87 + 2871 X_88
 + 4040 X_89 + 2879 X_9 + 4221 X_90 + 4377 X_91 + 3137 X_92 + 4312 X_93
 + 4493 X_94 + 4649 X_95 + 730 X_96 + 1862 X_97 + 2040 X_98 + 2192 X_99
Subject To
1_per_bidder_0: X_0 + X_1 + X_10 + X_11 + X_12 + X_13 + X_14 + X_15 + X_16
 + X_17 + X_18 + X_19 + X_2 + X_20 + X_21 + X_22 + X_23 + X_24 + X_25 + X_26
 + X_27 + X_28 + X_29 + X_3 + X_30 + X_31 + X_32 + X_33 + X_34 + X_35 + X_36
 + X_37 + X_38 + X_39 + X_4 + X_40 + X_41 + X_42 + X_43 + X_44 + X_45 + X_46
 + X_47 + X_48 + X_49 + X_5 + X_50 + X_51 + X_52 + X_53 + X_54 + X_55 + X_56
 + X_57 + X_58 + X_59 + X_6 + X_60 + X_61 + X_62 + X_63 + X_7 + X_8 + X_9 = 1
1_per_bidder_1: X_100 + X_101 + X_102 + X_103 + X_104 + X_105 + X_106 + X_107
 + X_108 + X_109 + X_110 + X_111 + X_112 + X_113 + X_114 + X_115 + X_116
 + X_117 + X_118 + X_119 + X_120 + X_121 + X_122 + X_123 + X_124 + X_125
 + X_126 + X_127 + X_64 + X_65 + X_66 + X_67 + X_68 + X_69 + X_70 + X_71
 + X_72 + X_73 + X_74 + X_75 + X_76 + X_77 + X_78 + X_79 + X_80 + X_81 + X_82
 + X_83 + X_84 + X_85 + X_86 + X_87 + X_88 + X_89 + X_90 + X_91 + X_92 + X_93
 + X_94 + X_95 + X_96 + X_97 + X_98 + X_99 = 1
supply_0: 2 X_100 + 2 X_101 + 2 X_102 + 2 X_103 + 2 X_104 + 2 X_105 + 2 X_106
 + 2 X_107 + 2 X_108 + 2 X_109 + 2 X_110 + 2 X_111 + 3 X_112 + 3 X_113
 + 3 X_114 + 3 X_115 + 3 X_116 + 3 X_117 + 3 X_118 + 3 X_119 + 3 X_120
 + 3 X_121 + 3 X_122 + 3 X_123 + 3 X_124 + 3 X_125 + 3 X_126 + 3 X_127 + X_16
 + X_17 + X_18 + X_19 + X_20 + X_21 + X_22 + X_23 + X_24 + X_25 + X_26 + X_27
 + X_28 + X_29 + X_30 + X_31 + 2 X_32 + 2 X_33 + 2 X_34 + 2 X_35 + 2 X_36
 + 2 X_37 + 2 X_38 + 2 X_39 + 2 X_40 + 2 X_41 + 2 X_42 + 2 X_43 + 2 X_44
 + 2 X_45 + 2 X_46 + 2 X_47 + 3 X_48 + 3 X_49 + 3 X_50 + 3 X_51 + 3 X_52
 + 3 X_53 + 3 X_54 + 3 X_55 + 3 X_56 + 3 X_57 + 3 X_58 + 3 X_59 + 3 X_60
 + 3 X_61 + 3 X_62 + 3 X_63 + X_80 + X_81 + X_82 + X_83 + X_84 + X_85 + X_86
 + X_87 + X_88 + X_89 + X_90 + X_91 + X_92 + X_93 + X_94 + X_95 + 2 X_96
 + 2 X_97 + 2 X_98 + 2 X_99 <= 3
supply_1: 2 X_10 + X_100 + X_101 + X_102 + X_103 + 2 X_104 + 2 X_105 + 2 X_106
 + 2 X_107 + 3 X_108 + 3 X_109 + 2 X_11 + 3 X_110 + 3 X_111 + X_116 + X_117
 + X_118 + X_119 + 3 X_12 + 2 X_120 + 2 X_121 + 2 X_122 + 2 X_123 + 3 X_124
 + 3 X_125 + 3 X_126 + 3 X_127 + 3 X_13 + 3 X_14 + 3 X_15 + X_20 + X_21 + X_22
 + X_23 + 2 X_24 + 2 X_25 + 2 X_26 + 2 X_27 + 3 X_28 + 3 X_29 + 3 X_30
 + 3 X_31 + X_36 + X_37 + X_38 + X_39 + X_4 + 2 X_40 + 2 X_41 + 2 X_42
 + 2 X_43 + 3 X_44 + 3 X_45 + 3 X_46 + 3 X_47 + X_5 + X_52 + X_53 + X_54
 + X_55 + 2 X_56 + 2 X_57 + 2 X_58 + 2 X_59 + X_6 + 3 X_60 + 3 X_61 + 3 X_62
 + 3 X_63 + X_68 + X_69 + X_7 + X_70 + X_71 + 2 X_72 + 2 X_73 + 2 X_74
 + 2 X_75 + 3 X_76 + 3 X_77 + 3 X_78 + 3 X_79 + 2 X_8 + X_84 + X_85 + X_86
 + X_87 + 2 X_88 + 2 X_89 + 2 X_9 + 2 X_90 + 2 X_91 + 3 X_92 + 3 X_93 + 3 X_94
 + 3 X_95 <= 3
supply_2: X_1 + 2 X_10 + X_101 + 2 X_102 + 3 X_103 + X_105 + 2 X_106 + 3 X_107
 + X_109 + 3 X_11 + 2 X_110 + 3 X_111 + X_113 + 2 X_114 + 3 X_115 + X_117
 + 2 X_118 + 3 X_119 + X_121 + 2 X_122 + 3 X_123 + X_125 + 2 X_126 + 3 X_127
 + X_13 + 2 X_14 + 3 X_15 + X_17 + 2 X_18 + 3 X_19 + 2 X_2 + X_21 + 2 X_22
 + 3 X_23 + X_25 + 2 X_26 + 3 X_27 + X_29 + 3 X_3 + 2 X_30 + 3 X_31 + X_33
 + 2 X_34 + 3 X_35 + X_37 + 2 X_38 + 3 X_39 + X_41 + 2 X_42 + 3 X_43 + X_45
 + 2 X_46 + 3 X_47 + X_49 + X_5 + 2 X_50 + 3 X_51 + X_53 + 2 X_54 + 3 X_55
 + X_57 + 2 X_58 + 3 X_59 + 2 X_6 + X_61 + 2 X_62 + 3 X_63 + X_65 + 2 X_66
 + 3 X_67 + X_69 + 3 X_7 + 2 X_70 + 3 X_71 + X_73 + 2 X_74 + 3 X_75 + X_77
 + 2 X_78 + 3 X_79 + X_81 + 2 X_82 + 3 X_83 + X_85 + 2 X_86 + 3 X_87 + X_89
 + X_9 + 2 X_90 + 3 X_91 + X_93 + 2 X_94 + 3 X_95 + X_97 + 2 X_98 + 3 X_99
 <= 3
Binaries
X_0
X_1
X_10
X_100
X_101
X_102
X_103
X_104
X_105
X_106
X_107
X_108
X_109
X_11
X_110
X_111
X_112
X_113
X_114
X_115
X_116
X_117
X_118
X_119
X_12
X_120
X_121
X_122
X_123
X_124
X_125
X_126
X_127
X_13
X_14
X_15
X_16
X_17
X_18
X_19
X_2
X_20
X_21
X_22
X_23
X_24
X_25
X_26
X_27
X_28
X_29
X_3
X_30
X_31
X_32
X_33
X_34
X_35
X_36
X_37
X_38
X_39
X_4
X_40
X_41
X_42
X_43
X_44
X_45
X_46
X_47
X_48
X_49
X_5
X_50
X_51
X_52
X_53
X_54
X_55
X_56
X_57
X_58
X_59
X_6
X_60
X_61
X_62
X_63
X_64
X_65
X_66
X_67
X_68
X_69
X_7
X_70
X_71
X_72
X_73
X_74
X_75
X_76
X_77
X_78
X_79
X_8
X_80
X_81
X_82
X_83
X_84
X_85
X_86
X_87
X_88
X_89
X_9
X_90
X_91
X_92
X_93
X_94
X_95
X_96
X_97
X_98
X_99
End
